p tw 555 594
1 88
1 450
2 89
2 451
3 76
3 452
4 77
4 453
5 92
5 454
6 54
6 455
7 93
7 456
8 98
8 457
9 99
9 458
10 55
10 459
11 56
11 460
12 57
12 461
13 64
13 462
14 65
14 463
15 78
15 464
16 79
16 465
17 82
17 466
18 117
18 467
19 68
19 468
20 83
20 469
21 66
21 470
22 67
22 471
23 122
23 472
24 84
24 473
25 85
25 474
26 70
26 475
27 71
27 476
28 69
28 477
29 80
29 478
30 129
30 479
31 60
31 480
32 61
32 481
33 81
33 482
34 90
34 483
35 91
35 484
36 135
36 485
37 58
37 486
38 59
38 487
39 74
39 488
40 96
40 489
41 140
41 490
42 75
42 491
43 97
43 492
44 86
44 493
45 87
45 494
46 94
46 495
47 95
47 496
48 72
48 497
49 73
49 498
50 62
50 499
51 63
51 500
52 151
52 501
53 152
53 502
54 55
54 105
55 109
56 57
56 110
57 111
58 59
58 136
59 137
60 61
60 130
61 131
62 63
62 149
63 150
64 65
64 112
65 113
66 67
66 120
67 121
68 69
68 118
69 127
70 71
70 125
71 126
72 73
72 147
73 148
74 75
74 138
75 141
76 77
76 102
77 103
78 79
78 114
79 115
80 81
80 128
81 132
82 83
82 116
83 119
84 85
84 123
85 124
86 87
86 143
87 144
88 89
88 100
89 101
90 91
90 133
91 134
92 93
92 104
93 106
94 95
94 145
95 146
96 97
96 139
97 142
98 99
98 107
99 108
100 177
101 161
102 162
103 197
104 198
105 178
106 193
107 155
108 207
109 175
110 176
111 179
112 180
113 194
114 213
115 169
116 156
117 171
118 170
119 183
120 184
121 189
122 190
123 172
124 191
125 192
126 187
127 188
128 227
129 195
130 181
131 230
132 163
133 164
134 157
135 158
136 196
137 173
138 174
139 182
140 165
141 159
142 153
143 154
144 167
145 168
146 166
147 246
148 185
149 186
150 160
151 250
152 251
153 154
153 241
154 242
155 156
155 206
156 215
157 158
157 233
158 234
159 160
159 240
160 249
161 162
161 200
162 201
163 164
163 231
164 232
165 166
165 239
166 245
167 168
167 243
168 244
169 170
169 214
170 217
171 172
171 216
172 222
173 174
173 236
174 237
175 176
175 208
176 209
177 178
177 199
178 204
179 180
179 210
180 211
181 182
181 229
182 238
183 184
183 218
184 219
185 186
185 247
186 248
187 188
187 225
188 226
189 190
189 220
190 221
191 192
191 223
192 224
193 194
193 205
194 212
195 196
195 228
196 235
197 198
197 202
198 203
199 282
200 268
201 269
202 296
203 297
204 283
205 304
206 260
207 258
208 259
209 308
210 288
211 310
212 292
213 293
214 270
215 261
216 289
217 271
218 286
219 287
220 256
221 252
222 253
223 322
224 276
225 290
226 291
227 257
228 277
229 284
230 266
231 267
232 331
233 280
234 274
235 275
236 278
237 279
238 285
239 281
240 264
241 254
242 255
243 294
244 343
245 262
246 263
247 272
248 347
249 265
250 295
251 273
252 253
252 320
253 321
254 255
254 340
255 341
256 257
256 319
257 326
258 259
258 306
259 307
260 261
260 305
261 314
262 263
262 344
263 345
264 265
264 339
265 348
266 267
266 329
267 330
268 269
268 299
269 300
270 271
270 313
271 316
272 273
272 346
273 350
274 275
274 333
275 334
276 277
276 323
277 327
278 279
278 335
279 336
280 281
280 332
281 338
282 283
282 298
283 303
284 285
284 328
285 337
286 287
286 317
287 318
288 289
288 309
289 315
290 291
290 324
291 325
292 293
292 311
293 312
294 295
294 342
295 349
296 297
296 301
297 302
298 385
299 386
300 373
301 374
302 389
303 351
304 390
305 395
306 396
307 352
308 353
309 354
310 361
311 362
312 375
313 376
314 379
315 414
316 365
317 380
318 363
319 364
320 419
321 381
322 382
323 367
324 368
325 366
326 377
327 426
328 357
329 358
330 378
331 387
332 388
333 432
334 355
335 356
336 371
337 393
338 437
339 372
340 394
341 383
342 384
343 391
344 392
345 369
346 370
347 359
348 360
349 448
350 449
351 352
351 402
352 406
353 354
353 407
354 408
355 356
355 433
356 434
357 358
357 427
358 428
359 360
359 446
360 447
361 362
361 409
362 410
363 364
363 417
364 418
365 366
365 415
366 424
367 368
367 422
368 423
369 370
369 444
370 445
371 372
371 435
372 438
373 374
373 399
374 400
375 376
375 411
376 412
377 378
377 425
378 429
379 380
379 413
380 416
381 382
381 420
382 421
383 384
383 440
384 441
385 386
385 397
386 398
387 388
387 430
388 431
389 390
389 401
390 403
391 392
391 442
392 443
393 394
393 436
394 439
395 396
395 404
396 405
397 503
398 504
399 505
400 506
401 507
402 508
403 509
404 510
405 511
406 512
407 513
408 514
409 515
410 516
411 517
412 518
413 519
414 520
415 521
416 522
417 523
418 524
419 525
420 526
421 527
422 528
423 529
424 530
425 531
426 532
427 533
428 534
429 535
430 536
431 537
432 538
433 539
434 540
435 541
436 542
437 543
438 544
439 545
440 546
441 547
442 548
443 549
444 550
445 551
446 552
447 553
448 554
449 555
